BAYES
100
2 2 2 2 2 2 2 2 2 2 2 2 2 2 2 2 2 2 2 2 2 2 2 2 2 2 2 2 2 2 2 2 2 2 2 2 2 2 2 2 2 2 2 2 2 2 2 2 2 2 2 2 2 2 2 2 2 2 2 2 2 2 2 2 2 2 2 2 2 2 2 2 2 2 2 2 2 2 2 2 2 2 2 2 2 2 2 2 2 2 2 2 2 2 2 2 2 2 2 2
100
1 0
2 0 1
2 1 2
2 2 3
2 3 4
2 4 5
2 5 6
2 6 7
2 7 8
2 8 9
2 0 10
3 1 10 11
3 2 11 12
3 3 12 13
3 4 13 14
3 5 14 15
3 6 15 16
3 7 16 17
3 8 17 18
3 9 18 19
2 10 20
3 11 20 21
3 12 21 22
3 13 22 23
3 14 23 24
3 15 24 25
3 16 25 26
3 17 26 27
3 18 27 28
3 19 28 29
2 20 30
3 21 30 31
3 22 31 32
3 23 32 33
3 24 33 34
3 25 34 35
3 26 35 36
3 27 36 37
3 28 37 38
3 29 38 39
2 30 40
3 31 40 41
3 32 41 42
3 33 42 43
3 34 43 44
3 35 44 45
3 36 45 46
3 37 46 47
3 38 47 48
3 39 48 49
2 40 50
3 41 50 51
3 42 51 52
3 43 52 53
3 44 53 54
3 45 54 55
3 46 55 56
3 47 56 57
3 48 57 58
3 49 58 59
2 50 60
3 51 60 61
3 52 61 62
3 53 62 63
3 54 63 64
3 55 64 65
3 56 65 66
3 57 66 67
3 58 67 68
3 59 68 69
2 60 70
3 61 70 71
3 62 71 72
3 63 72 73
3 64 73 74
3 65 74 75
3 66 75 76
3 67 76 77
3 68 77 78
3 69 78 79
2 70 80
3 71 80 81
3 72 81 82
3 73 82 83
3 74 83 84
3 75 84 85
3 76 85 86
3 77 86 87
3 78 87 88
3 79 88 89
2 80 90
3 81 90 91
3 82 91 92
3 83 92 93
3 84 93 94
3 85 94 95
3 86 95 96
3 87 96 97
3 88 97 98
3 89 98 99

2
0.144521 0.855479
4
1.0 0.0 0.0 1.0
4
1.0 0.0 0.0 1.0
4
0.0 1.0 1.0 0.0
4
0.0 1.0 1.0 0.0
4
1.0 0.0 0.0 1.0
4
0.114504 0.885496 0.395255 0.604745
4
1.0 0.0 0.0 1.0
4
0.0 1.0 1.0 0.0
4
1.0 0.0 0.0 1.0
4
0.29811 0.70189 0.866275 0.133725
8
1.0 0.0 1.0 0.0 0.0 1.0 1.0 0.0
8
0.0 1.0 0.0 1.0 1.0 0.0 1.0 0.0
8
0.0252281 0.974772 0.468522 0.531478 0.638239 0.361761 0.838059 0.161941
8
0.685434 0.314566 0.346779 0.653221 0.193828 0.806172 0.435783 0.564217
8
0.0 1.0 1.0 0.0 0.0 1.0 1.0 0.0
8
0.120452 0.879548 0.102152 0.897848 0.609877 0.390123 0.418562 0.581438
8
0.277279 0.722721 0.679569 0.320431 0.479788 0.520212 0.45336 0.54664
8
0.0 1.0 1.0 0.0 1.0 0.0 1.0 0.0
8
0.538812 0.461188 0.55979 0.44021 0.393117 0.606883 0.177051 0.822949
4
1.0 0.0 0.0 1.0
8
0.744628 0.255372 0.478618 0.521382 0.298269 0.701731 0.205911 0.794089
8
0.0 1.0 1.0 0.0 0.0 1.0 0.0 1.0
8
1.0 0.0 0.0 1.0 0.0 1.0 1.0 0.0
8
1.0 0.0 0.0 1.0 0.0 1.0 0.0 1.0
8
1.0 0.0 1.0 0.0 0.0 1.0 0.0 1.0
8
1.0 0.0 0.0 1.0 1.0 0.0 1.0 0.0
8
0.0 1.0 0.0 1.0 0.0 1.0 1.0 0.0
8
0.95448 0.0455202 0.543667 0.456333 0.668051 0.331949 0.789261 0.210739
8
0.693755 0.306245 0.726193 0.273807 0.778372 0.221628 0.138021 0.861979
4
1.0 0.0 0.0 1.0
8
0.0 1.0 1.0 0.0 1.0 0.0 1.0 0.0
8
1.0 0.0 0.0 1.0 0.0 1.0 0.0 1.0
8
0.0 1.0 0.0 1.0 1.0 0.0 0.0 1.0
8
1.0 0.0 1.0 0.0 1.0 0.0 0.0 1.0
8
1.0 0.0 0.0 1.0 0.0 1.0 0.0 1.0
8
0.0 1.0 0.0 1.0 1.0 0.0 1.0 0.0
8
0.0 1.0 0.0 1.0 1.0 0.0 1.0 0.0
8
0.0 1.0 1.0 0.0 0.0 1.0 1.0 0.0
8
0.0 1.0 1.0 0.0 1.0 0.0 0.0 1.0
4
1.0 0.0 0.0 1.0
8
0.0 1.0 1.0 0.0 1.0 0.0 1.0 0.0
8
0.0 1.0 1.0 0.0 0.0 1.0 0.0 1.0
8
1.0 0.0 0.0 1.0 0.0 1.0 0.0 1.0
8
1.0 0.0 1.0 0.0 0.0 1.0 1.0 0.0
8
0.953558 0.046442 0.897145 0.102855 0.150155 0.849845 0.704911 0.295089
8
0.0 1.0 0.0 1.0 0.0 1.0 1.0 0.0
8
1.0 0.0 1.0 0.0 1.0 0.0 0.0 1.0
8
1.0 0.0 1.0 0.0 0.0 1.0 1.0 0.0
8
1.0 0.0 1.0 0.0 0.0 1.0 0.0 1.0
4
0.778083 0.221917 0.514689 0.485311
8
0.0 1.0 1.0 0.0 0.0 1.0 0.0 1.0
8
1.0 0.0 0.0 1.0 0.0 1.0 0.0 1.0
8
1.0 0.0 1.0 0.0 0.0 1.0 0.0 1.0
8
0.0339753 0.966025 0.739106 0.260894 0.118101 0.881899 0.409235 0.590765
8
1.0 0.0 0.0 1.0 1.0 0.0 0.0 1.0
8
1.0 0.0 1.0 0.0 0.0 1.0 1.0 0.0
8
0.0 1.0 0.0 1.0 1.0 0.0 0.0 1.0
8
1.0 0.0 1.0 0.0 0.0 1.0 0.0 1.0
8
1.0 0.0 1.0 0.0 1.0 0.0 0.0 1.0
4
1.0 0.0 0.0 1.0
8
1.0 0.0 1.0 0.0 0.0 1.0 1.0 0.0
8
1.0 0.0 0.0 1.0 0.0 1.0 1.0 0.0
8
1.0 0.0 1.0 0.0 0.0 1.0 0.0 1.0
8
1.0 0.0 0.0 1.0 0.0 1.0 1.0 0.0
8
0.239342 0.760658 0.577388 0.422612 0.876926 0.123074 0.539254 0.460746
8
0.805699 0.194301 0.811435 0.188565 0.197914 0.802086 0.27591 0.72409
8
0.549755 0.450245 0.485227 0.514773 0.165674 0.834326 0.310831 0.689169
8
0.0 1.0 1.0 0.0 0.0 1.0 1.0 0.0
8
0.00441423 0.995586 0.139009 0.860991 0.385888 0.614112 0.973097 0.0269031
4
0.0 1.0 1.0 0.0
8
1.0 0.0 1.0 0.0 1.0 0.0 0.0 1.0
8
0.0 1.0 0.0 1.0 1.0 0.0 1.0 0.0
8
1.0 0.0 1.0 0.0 0.0 1.0 1.0 0.0
8
1.0 0.0 1.0 0.0 0.0 1.0 1.0 0.0
8
0.674396 0.325604 0.334535 0.665465 0.991201 0.00879904 0.653646 0.346354
8
1.0 0.0 1.0 0.0 0.0 1.0 0.0 1.0
8
0.652019 0.347981 0.645522 0.354478 0.0945542 0.905446 0.930221 0.0697793
8
1.0 0.0 0.0 1.0 0.0 1.0 0.0 1.0
8
0.0 1.0 0.0 1.0 1.0 0.0 1.0 0.0
4
0.0 1.0 1.0 0.0
8
1.0 0.0 0.0 1.0 0.0 1.0 0.0 1.0
8
1.0 0.0 0.0 1.0 0.0 1.0 1.0 0.0
8
0.0 1.0 1.0 0.0 1.0 0.0 0.0 1.0
8
1.0 0.0 0.0 1.0 1.0 0.0 0.0 1.0
8
1.0 0.0 1.0 0.0 0.0 1.0 1.0 0.0
8
1.0 0.0 0.0 1.0 0.0 1.0 0.0 1.0
8
0.0 1.0 0.0 1.0 1.0 0.0 1.0 0.0
8
0.0 1.0 0.0 1.0 1.0 0.0 0.0 1.0
8
0.0 1.0 0.0 1.0 1.0 0.0 1.0 0.0
4
0.0 1.0 1.0 0.0
8
1.0 0.0 1.0 0.0 1.0 0.0 0.0 1.0
8
0.0 1.0 1.0 0.0 1.0 0.0 1.0 0.0
8
0.0 1.0 1.0 0.0 0.0 1.0 1.0 0.0
8
1.0 0.0 0.0 1.0 1.0 0.0 1.0 0.0
8
0.658375 0.341625 0.743707 0.256293 0.794064 0.205936 0.734327 0.265673
8
1.0 0.0 0.0 1.0 0.0 1.0 0.0 1.0
8
1.0 0.0 0.0 1.0 1.0 0.0 1.0 0.0
8
0.57532 0.42468 0.57364 0.42636 0.629142 0.370858 0.894144 0.105856
8
0.0 1.0 0.0 1.0 0.0 1.0 1.0 0.0